% demand
num_movements = 20;
loading_factor = [950, 1550, 1600, 1650, 1850, 950, 1650, 950, 1950, 2000, 1150, 1700, 2000, 850, 1400, 1650, 1100, 900, 1700, 800];
pickup_time = [0, 0, 0, 0, 1, 2, 3, 3, 5, 5, 6, 6, 7, 7, 7, 8, 8, 9, 9, 9];
delivery_time = [7, 1, 3, 3, 6, 4, 4, 4, 6, 6, 7, 7, 8, 10, 8, 10, 10, 10, 10, 10];

% transporter definition
total_capacity = 7000;
num_decks = 3;
capacity = [3000, 1000, 3000];

% ways out of decks
num_ways_out = 1;
paths_out = array3d(decks, ways_out, decks, [
% ways out of deck d1
2, 3, 0, 

% ways out of deck d2
3, 0, 0, 

% ways out of deck d3
0, 0, 0,	

]);

